mixintcount/benchmarks/random_v2l/4_4_4466.smt2
(set-logic QF_LIA)
(set-info :ran/ran2.smt2)
(set-info :smt-lib-version 2.0)
(declare-fun x1 () Int)
(declare-fun x2 () Int)
(declare-fun x3 () Int)
(declare-fun x4 () Int)
(assert (<= (+ (* (- 7) x1) (* 1 x2) (* 7 x3) (* 5 x4) ) 1151))
(assert (<= (+ (* 0 x1) (* (- 9) x2) (* (- 9) x3) (* 3 x4) ) (- 1915)))
(assert (<= (+ (* 10 x1) (* (- 8) x2) (* (- 10) x3) (* 8 x4) ) 982))
(assert (<= (+ (* (- 6) x1) (* (- 10) x2) (* (- 5) x3) (* 1 x4) ) (- 2607)))
(assert (<= (+ (* (- 3) x1) (* (- 1) x2) (* (- 5) x3) (* (- 6) x4) ) 1347))
(assert (<= (+ (* 9 x1) (* 0 x2) (* (- 5) x3) (* (- 8) x4) ) (- 528)))
(assert (<= (+ (* (- 6) x1) (* (- 5) x2) (* (- 1) x3) (* (- 10) x4) ) 1419))
(assert (<= (+ (* (- 1) x1) (* (- 1) x2) (* 10 x3) (* (- 2) x4) ) (- 4406)))
(assert (<= (+ (* 1 x1) (* 0 x2) (* 0 x3) (* 0 x4) ) 4466))
(assert (<= (+ (* (- 1) x1) (* 0 x2) (* 0 x3) (* 0 x4) ) 4466))
(assert (<= (+ (* 0 x1) (* 1 x2) (* 0 x3) (* 0 x4) ) 4466))
(assert (<= (+ (* 0 x1) (* (- 1) x2) (* 0 x3) (* 0 x4) ) 4466))
(assert (<= (+ (* 0 x1) (* 0 x2) (* 1 x3) (* 0 x4) ) 4466))
(assert (<= (+ (* 0 x1) (* 0 x2) (* (- 1) x3) (* 0 x4) ) 4466))
(assert (<= (+ (* 0 x1) (* 0 x2) (* 0 x3) (* 1 x4) ) 4466))
(assert (<= (+ (* 0 x1) (* 0 x2) (* 0 x3) (* (- 1) x4) ) 4466))
