mixintcount/benchmarks/random_v2l/4_4_4466.in
16 6
#	x1	x2	x3	x4;		0 = Real; 1 = Integer
	1	1	1	1
1	-7	1	7	5	1151
1	0	-9	-9	3	-1915
1	10	-8	-10	8	982
1	-6	-10	-5	1	-2607
1	-3	-1	-5	-6	1347
1	9	0	-5	-8	-528
1	-6	-5	-1	-10	1419
1	-1	-1	10	-2	-4406
1	1	0	0	0	4466
1	-1	0	0	0	4466
1	0	1	0	0	4466
1	0	-1	0	0	4466
1	0	0	1	0	4466
1	0	0	-1	0	4466
1	0	0	0	1	4466
1	0	0	0	-1	4466
